
Gurobi 10.0.0 (win64) logging started Tue Jun  4 16:10:53 2024

Set parameter LogFile to value "C:\Users\ealvarezq\Documents\GitHub\Comillas\Models\JointResearch\05. Models\06.Benchmarking\E.Representative_days_based_on_Line_Benefits_OptModel\9n_mod1_ByStages_nc10/openStarNet_9n_mod1_ByStages_nc10.log"
Set parameter Method to value 2
Set parameter MIPFocus to value 1
Set parameter Presolve to value 2
Set parameter RINS to value 100
Set parameter MIPGap to value 0.01
Set parameter Threads to value 9
Set parameter TimeLimit to value 259200
Set parameter IterationLimit to value 760000000
Gurobi Optimizer version 10.0.0 build v10.0.0rc2 (win64)

CPU model: Intel(R) Core(TM) i7-8700 CPU @ 3.20GHz, instruction set [SSE2|AVX|AVX2]
Thread count: 6 physical cores, 12 logical processors, using up to 9 threads

Optimize a model with 2623 rows, 1429 columns and 7955 nonzeros
Model fingerprint: 0x6208b0e5
Variable types: 1393 continuous, 36 integer (36 binary)
Coefficient statistics:
  Matrix range     [8e-04, 7e+03]
  Objective range  [1e+00, 1e+00]
  Bounds range     [9e-04, 2e+00]
  RHS range        [8e-04, 1e+00]
Presolve removed 893 rows and 474 columns
Presolve time: 0.01s
Presolved: 1730 rows, 955 columns, 5919 nonzeros
Variable types: 919 continuous, 36 integer (36 binary)
Found heuristic solution: objective 4350.7799893
Root relaxation presolved: 1730 rows, 955 columns, 5919 nonzeros

Root barrier log...

Ordering time: 0.03s

Barrier statistics:
 AA' NZ     : 4.497e+04
 Factor NZ  : 2.356e+05 (roughly 3 MB of memory)
 Factor Ops : 5.204e+07 (less than 1 second per iteration)
 Threads    : 9

                  Objective                Residual
Iter       Primal          Dual         Primal    Dual     Compl     Time
   0   4.79764626e+05 -2.45736763e+07  6.96e+00 1.15e+03  2.71e+04     0s
   1   5.99661643e+04 -9.85615700e+06  7.20e-01 9.46e-11  3.83e+03     0s
   2   1.36149651e+04 -6.89828579e+06  2.19e-02 7.46e-11  2.01e+03     0s
   3   6.20226115e+03 -1.93364945e+05  1.07e-14 4.37e-11  5.75e+01     0s
   4   1.36949631e+03 -1.46933843e+04  2.66e-14 2.96e-12  4.63e+00     0s
   5   7.32773767e+02 -3.57499875e+03  1.24e-14 7.18e-12  1.24e+00     0s
   6   3.43433959e+02 -5.67600128e+02  1.38e-14 3.65e-12  2.63e-01     0s
   7   1.58216243e+02 -1.68006200e+02  3.11e-14 2.90e-12  9.40e-02     0s
   8   1.08081526e+02  5.99349935e+01  4.53e-14 5.27e-12  1.39e-02     0s
   9   8.69087507e+01  7.62017563e+01  7.30e-13 4.19e-12  3.09e-03     0s
  10   8.41488880e+01  8.03424386e+01  1.52e-12 2.11e-12  1.10e-03     0s
  11   8.24768795e+01  8.12429673e+01  1.14e-12 1.71e-12  3.56e-04     0s
  12   8.16995001e+01  8.15350785e+01  1.74e-12 5.07e-12  4.74e-05     0s
  13   8.16080348e+01  8.16041930e+01  2.37e-12 3.21e-12  1.11e-06     0s
  14   8.16061447e+01  8.16060414e+01  1.05e-11 3.98e-12  2.98e-08     0s
  15   8.16061148e+01  8.16061147e+01  1.31e-12 5.60e-12  3.18e-11     0s

Barrier solved model in 15 iterations and 0.10 seconds (0.06 work units)
Optimal objective 8.16061148e+01


Root relaxation: objective 8.160611e+01, 156 iterations, 0.08 seconds (0.05 work units)

    Nodes    |    Current Node    |     Objective Bounds      |     Work
 Expl Unexpl |  Obj  Depth IntInf | Incumbent    BestBd   Gap | It/Node Time

     0     0   81.60611    0    8 4350.77999   81.60611  98.1%     -    0s
H    0     0                    4296.6344501   81.60611  98.1%     -    0s
H    0     0                      86.3758743   81.60611  5.52%     -    0s

Cutting planes:
  Gomory: 3
  MIR: 30
  RLT: 1
  Relax-and-lift: 1

Explored 1 nodes (156 simplex iterations) in 0.14 seconds (0.08 work units)
Thread count was 9 (of 12 available processors)

Solution count 3: 86.3759 4296.63 4350.78 

Optimal solution found (tolerance 1.00e-02)
Best objective 8.637587428973e+01, best bound 8.627336169180e+01, gap 0.1187%

Gurobi 10.0.0 (win64) logging started Tue Jun  4 16:10:54 2024

Set parameter LogFile to value "C:\Users\ealvarezq\Documents\GitHub\Comillas\Models\JointResearch\05. Models\06.Benchmarking\E.Representative_days_based_on_Line_Benefits_OptModel\9n_mod1_ByStages_nc10/openStarNet_9n_mod1_ByStages_nc10.log"
Set parameter Method to value 2
Set parameter MIPFocus to value 1
Set parameter Presolve to value 2
Set parameter RINS to value 100
Set parameter MIPGap to value 0.01
Set parameter Threads to value 9
Set parameter TimeLimit to value 259200
Set parameter IterationLimit to value 760000000
Gurobi Optimizer version 10.0.0 build v10.0.0rc2 (win64)

CPU model: Intel(R) Core(TM) i7-8700 CPU @ 3.20GHz, instruction set [SSE2|AVX|AVX2]
Thread count: 6 physical cores, 12 logical processors, using up to 9 threads

Optimize a model with 2623 rows, 1393 columns and 6479 nonzeros
Model fingerprint: 0x022c880d
Coefficient statistics:
  Matrix range     [8e-04, 7e+03]
  Objective range  [1e+00, 1e+00]
  Bounds range     [9e-04, 2e+00]
  RHS range        [8e-04, 2e+01]
Presolve removed 2392 rows and 924 columns
Presolve time: 0.00s
Presolved: 231 rows, 479 columns, 1031 nonzeros

Ordering time: 0.00s

Barrier statistics:
 AA' NZ     : 5.050e+02
 Factor NZ  : 2.288e+03
 Factor Ops : 2.986e+04 (less than 1 second per iteration)
 Threads    : 1

                  Objective                Residual
Iter       Primal          Dual         Primal    Dual     Compl     Time
   0   4.14534445e+05 -1.45727166e+07  4.87e+00 2.14e+00  5.60e+04     0s
   1   7.33572408e+04 -6.26804159e+06  7.26e-01 5.09e-11  9.85e+03     0s
   2   1.72685804e+04 -1.76353155e+06  1.39e-02 3.64e-11  1.67e+03     0s
   3   9.16815507e+03 -4.20119676e+04  4.66e-15 6.18e-11  4.70e+01     0s
   4   1.17684455e+03 -5.12072837e+03  2.22e-15 1.52e-11  5.78e+00     0s
   5   5.71438927e+02 -1.81165292e+03  1.55e-15 4.71e-12  2.19e+00     0s
   6   2.93599461e+02 -3.42599137e+02  6.11e-16 1.04e-11  5.84e-01     0s
   7   1.24954219e+02 -3.77888289e+00  8.88e-16 5.39e-12  1.18e-01     0s
   8   9.44329256e+01  6.70455417e+01  1.89e-15 1.06e-11  2.51e-02     0s
   9   8.74409116e+01  8.21434552e+01  1.11e-15 2.74e-12  4.86e-03     0s
  10   8.65756039e+01  8.60061846e+01  2.44e-15 8.68e-12  5.23e-04     0s
  11   8.64310781e+01  8.63104471e+01  2.22e-15 9.88e-12  1.11e-04     0s
  12   8.63889632e+01  8.63504461e+01  2.22e-15 1.01e-11  3.54e-05     0s
  13   8.63765141e+01  8.63750903e+01  1.44e-15 6.42e-12  1.31e-06     0s
  14   8.63758745e+01  8.63758741e+01  8.88e-15 7.66e-12  3.14e-10     0s

Barrier solved model in 14 iterations and 0.01 seconds (0.00 work units)
Optimal objective 8.63758745e+01

Crossover log...

     114 DPushes remaining with DInf 0.0000000e+00                 0s
       0 DPushes remaining with DInf 0.0000000e+00                 0s

       0 PPushes remaining with PInf 0.0000000e+00                 0s

  Push phase complete: Pinf 0.0000000e+00, Dinf 3.0183148e-13      0s

Iteration    Objective       Primal Inf.    Dual Inf.      Time
       4    8.6375874e+01   0.000000e+00   0.000000e+00      0s

Solved in 4 iterations and 0.01 seconds (0.01 work units)
Optimal objective  8.637587429e+01
